GLPSOL: GLPK LP/MIP Solver, v4.65
Parameter(s) specified in the command line:
 --model solver_drone.mod --data solver_drone_data_10.dat --output solver_drone_solution_10_2.log
 --log solver_drone_cmd_output_10_2.log --tmlim 15
Reading model section from solver_drone.mod...
41 lines were read
Reading data section from solver_drone_data_10.dat...
37 lines were read
Generating f...
Generating package_deliverd_once...
Generating package_well_delivered...
Generating time_spent_flying...
Generating autonomy_not_exceeded...
Generating check_time_max...
Model has been successfully generated
GLPK Integer Optimizer, v4.65
365 rows, 333 columns, 1027 non-zeros
333 integer variables, 330 of which are binary
Preprocessing...
34 rows, 333 columns, 696 non-zeros
333 integer variables, 330 of which are binary
Scaling...
 A: min|aij| =  1.000e+00  max|aij| =  3.088e+03  ratio =  3.088e+03
GM: min|aij| =  5.550e-01  max|aij| =  1.802e+00  ratio =  3.246e+00
EQ: min|aij| =  3.081e-01  max|aij| =  1.000e+00  ratio =  3.246e+00
2N: min|aij| =  2.500e-01  max|aij| =  1.031e+00  ratio =  4.125e+00
Constructing initial basis...
Size of triangular part is 34
Solving LP relaxation...
GLPK Simplex Optimizer, v4.65
34 rows, 333 columns, 696 non-zeros
      0: obj =   0.000000000e+00 inf =   7.048e+02 (1)
     24: obj =   1.127600000e+04 inf =   0.000e+00 (0)
*    37: obj =   1.127600000e+04 inf =   0.000e+00 (0)
OPTIMAL LP SOLUTION FOUND
Integer optimization begins...
Long-step dual simplex will be used
+    37: mip =     not found yet >=              -inf        (1; 0)
+    60: >>>>>   1.147200000e+04 >=   1.127600000e+04   1.7% (8; 0)
+    70: >>>>>   1.130400000e+04 >=   1.127600000e+04   0.2% (14; 1)
+   163: >>>>>   1.129600000e+04 >=   1.127600000e+04   0.2% (44; 26)
+   856: >>>>>   1.128800000e+04 >=   1.127600000e+04   0.1% (186; 332)
+   926: >>>>>   1.128000000e+04 >=   1.127600000e+04 < 0.1% (186; 392)
+  2765: mip =   1.128000000e+04 >=     tree is empty   0.0% (0; 3085)
INTEGER OPTIMAL SOLUTION FOUND
Time used:   0.4 secs
Memory used: 1.0 Mb (1035130 bytes)
The package 1 is delivered by the drone 1 to the house 1
The package 2 is delivered by the drone 2 to the house 1
The package 3 is delivered by the drone 2 to the house 1
The package 4 is delivered by the drone 2 to the house 2
The package 5 is delivered by the drone 2 to the house 2
The package 6 is delivered by the drone 2 to the house 2
The package 7 is delivered by the drone 1 to the house 3
The package 8 is delivered by the drone 2 to the house 4
The package 9 is delivered by the drone 2 to the house 6
The package 10 is delivered by the drone 1 to the house 7
The package 11 is delivered by the drone 2 to the house 8
The package 12 is delivered by the drone 1 to the house 8
The package 13 is delivered by the drone 1 to the house 9
The package 14 is delivered by the drone 1 to the house 10
The package 15 is delivered by the drone 1 to the house 10
Model has been successfully processed
Writing MIP solution to 'solver_drone_solution_10_2.log'...
